*SPEF "IEEE 1481-1999"
*DESIGN "SECDED_1622_enc"
*DATE "Mon Sep  7 23:36:14 2026"
*VENDOR "SYNOPSYS INC"
*PROGRAM "Synopsys Design Compiler cmos"
*VERSION "X-2025.06-SP5-2"
*DESIGN_FLOW "SYNTHESIS"
*DIVIDER /
*DELIMITER :
*BUS_DELIMITER []
*T_UNIT 1.0 NS
*C_UNIT 0.0010 PF
*R_UNIT 1000.0 KOHM
*L_UNIT 1.0 HENRY

*PORTS

data_in\[15\] I *L 0.000e+00 *S 0.000e+00 0.000e+00 
data_in\[14\] I *L 0.000e+00 *S 0.000e+00 0.000e+00 
data_in\[13\] I *L 0.000e+00 *S 0.000e+00 0.000e+00 
data_in\[12\] I *L 0.000e+00 *S 0.000e+00 0.000e+00 
data_in\[11\] I *L 0.000e+00 *S 0.000e+00 0.000e+00 
data_in\[10\] I *L 0.000e+00 *S 0.000e+00 0.000e+00 
data_in\[9\] I *L 0.000e+00 *S 0.000e+00 0.000e+00 
data_in\[8\] I *L 0.000e+00 *S 0.000e+00 0.000e+00 
data_in\[7\] I *L 0.000e+00 *S 0.000e+00 0.000e+00 
data_in\[6\] I *L 0.000e+00 *S 0.000e+00 0.000e+00 
data_in\[5\] I *L 0.000e+00 *S 0.000e+00 0.000e+00 
data_in\[4\] I *L 0.000e+00 *S 0.000e+00 0.000e+00 
data_in\[3\] I *L 0.000e+00 *S 0.000e+00 0.000e+00 
data_in\[2\] I *L 0.000e+00 *S 0.000e+00 0.000e+00 
data_in\[1\] I *L 0.000e+00 *S 0.000e+00 0.000e+00 
data_in\[0\] I *L 0.000e+00 *S 0.000e+00 0.000e+00 
data_out\[21\] O *L 0.000e+00 *S 2.094e-03 1.384e-03 
data_out\[20\] O *L 0.000e+00 *S 2.094e-03 1.384e-03 
data_out\[19\] O *L 0.000e+00 *S 2.094e-03 1.384e-03 
data_out\[18\] O *L 0.000e+00 *S 2.094e-03 1.384e-03 
data_out\[17\] O *L 0.000e+00 *S 2.094e-03 1.384e-03 
data_out\[16\] O *L 0.000e+00 *S 2.094e-03 1.384e-03 
data_out\[15\] O *L 0.000e+00 *S 0.000e+00 0.000e+00 
data_out\[14\] O *L 0.000e+00 *S 0.000e+00 0.000e+00 
data_out\[13\] O *L 0.000e+00 *S 0.000e+00 0.000e+00 
data_out\[12\] O *L 0.000e+00 *S 0.000e+00 0.000e+00 
data_out\[11\] O *L 0.000e+00 *S 0.000e+00 0.000e+00 
data_out\[10\] O *L 0.000e+00 *S 0.000e+00 0.000e+00 
data_out\[9\] O *L 0.000e+00 *S 0.000e+00 0.000e+00 
data_out\[8\] O *L 0.000e+00 *S 0.000e+00 0.000e+00 
data_out\[7\] O *L 0.000e+00 *S 0.000e+00 0.000e+00 
data_out\[6\] O *L 0.000e+00 *S 0.000e+00 0.000e+00 
data_out\[5\] O *L 0.000e+00 *S 0.000e+00 0.000e+00 
data_out\[4\] O *L 0.000e+00 *S 0.000e+00 0.000e+00 
data_out\[3\] O *L 0.000e+00 *S 0.000e+00 0.000e+00 
data_out\[2\] O *L 0.000e+00 *S 0.000e+00 0.000e+00 
data_out\[1\] O *L 0.000e+00 *S 0.000e+00 0.000e+00 
data_out\[0\] O *L 0.000e+00 *S 0.000e+00 0.000e+00 

*R_NET data_out\[21\] 3.097e-01
*DRIVER U51:Z
*CELL XOR2_X1
*C2_R1_C1 1.549e-01 6.236e-03 1.549e-01 
*LOADS
*RC data_out\[21\] 1.931e-03
*END

*R_NET data_out\[19\] 3.097e-01
*DRIVER U56:Z
*CELL XOR2_X1
*C2_R1_C1 1.549e-01 6.236e-03 1.549e-01 
*LOADS
*RC data_out\[19\] 1.931e-03
*END

*R_NET data_out\[18\] 3.097e-01
*DRIVER U62:Z
*CELL XOR2_X1
*C2_R1_C1 1.549e-01 6.236e-03 1.549e-01 
*LOADS
*RC data_out\[18\] 1.931e-03
*END

*R_NET data_out\[15\] 5.742e+00
*DRIVER data_in\[15\]
*CELL NULL
*C2_R1_C1 2.871e+00 2.308e-02 2.871e+00 
*LOADS
*RC U59:B 2.149e-02
*RC U67:A 2.011e-02
*RC data_out\[15\] 2.940e-03
*END

*R_NET data_out\[14\] 5.742e+00
*DRIVER data_in\[14\]
*CELL NULL
*C2_R1_C1 2.871e+00 2.308e-02 2.871e+00 
*LOADS
*RC U60:A 2.011e-02
*RC U66:B 2.149e-02
*RC data_out\[14\] 2.940e-03
*END

*R_NET data_out\[13\] 5.742e+00
*DRIVER data_in\[13\]
*CELL NULL
*C2_R1_C1 2.871e+00 2.308e-02 2.871e+00 
*LOADS
*RC U44:B 2.149e-02
*RC U64:A 2.011e-02
*RC data_out\[13\] 2.940e-03
*END

*R_NET data_out\[12\] 5.611e+00
*DRIVER data_in\[12\]
*CELL NULL
*C2_R1_C1 2.806e+00 2.308e-02 2.806e+00 
*LOADS
*RC U43:A 2.012e-02
*RC U53:A 2.011e-02
*RC data_out\[12\] 2.940e-03
*END

*R_NET data_out\[11\] 5.611e+00
*DRIVER data_in\[11\]
*CELL NULL
*C2_R1_C1 2.806e+00 2.308e-02 2.806e+00 
*LOADS
*RC U42:A 2.012e-02
*RC U58:A 2.011e-02
*RC data_out\[11\] 2.940e-03
*END

*R_NET data_out\[10\] 5.611e+00
*DRIVER data_in\[10\]
*CELL NULL
*C2_R1_C1 2.805e+00 2.308e-02 2.805e+00 
*LOADS
*RC U38:A 2.011e-02
*RC U61:A 2.011e-02
*RC data_out\[10\] 2.940e-03
*END

*R_NET data_out\[9\] 5.742e+00
*DRIVER data_in\[9\]
*CELL NULL
*C2_R1_C1 2.871e+00 2.308e-02 2.871e+00 
*LOADS
*RC U50:A 2.011e-02
*RC U61:B 2.149e-02
*RC data_out\[9\] 2.940e-03
*END

*R_NET data_out\[8\] 5.742e+00
*DRIVER data_in\[8\]
*CELL NULL
*C2_R1_C1 2.871e+00 2.308e-02 2.871e+00 
*LOADS
*RC U53:B 2.149e-02
*RC U68:A 2.011e-02
*RC data_out\[8\] 2.940e-03
*END

*R_NET data_out\[7\] 5.969e+00
*DRIVER data_in\[7\]
*CELL NULL
*C2_R1_C1 2.985e+00 2.308e-02 2.985e+00 
*LOADS
*RC U48:B 2.149e-02
*RC U68:B 2.149e-02
*RC data_out\[7\] 2.940e-03
*END

*R_NET data_out\[6\] 5.969e+00
*DRIVER data_in\[6\]
*CELL NULL
*C2_R1_C1 2.985e+00 2.308e-02 2.985e+00 
*LOADS
*RC U50:B 2.149e-02
*RC U64:B 2.149e-02
*RC data_out\[6\] 2.940e-03
*END

*R_NET data_out\[5\] 5.611e+00
*DRIVER data_in\[5\]
*CELL NULL
*C2_R1_C1 2.805e+00 2.308e-02 2.805e+00 
*LOADS
*RC U39:A 2.011e-02
*RC U59:A 2.011e-02
*RC data_out\[5\] 2.940e-03
*END

*R_NET data_out\[4\] 5.611e+00
*DRIVER data_in\[4\]
*CELL NULL
*C2_R1_C1 2.806e+00 2.308e-02 2.806e+00 
*LOADS
*RC U54:A 2.012e-02
*RC U66:A 2.011e-02
*RC data_out\[4\] 2.940e-03
*END

*R_NET data_out\[3\] 5.742e+00
*DRIVER data_in\[3\]
*CELL NULL
*C2_R1_C1 2.871e+00 2.308e-02 2.871e+00 
*LOADS
*RC U44:A 2.011e-02
*RC U55:B 2.149e-02
*RC data_out\[3\] 2.940e-03
*END

*R_NET data_out\[2\] 5.611e+00
*DRIVER data_in\[2\]
*CELL NULL
*C2_R1_C1 2.806e+00 2.308e-02 2.806e+00 
*LOADS
*RC U49:A 2.012e-02
*RC U55:A 2.011e-02
*RC data_out\[2\] 2.940e-03
*END

*R_NET data_out\[1\] 5.742e+00
*DRIVER data_in\[1\]
*CELL NULL
*C2_R1_C1 2.871e+00 2.308e-02 2.871e+00 
*LOADS
*RC U39:B 2.149e-02
*RC U48:A 2.011e-02
*RC data_out\[1\] 2.940e-03
*END

*R_NET data_out\[0\] 5.611e+00
*DRIVER data_in\[0\]
*CELL NULL
*C2_R1_C1 2.806e+00 2.308e-02 2.806e+00 
*LOADS
*RC U47:A 2.012e-02
*RC U65:A 2.011e-02
*RC data_out\[0\] 2.940e-03
*END

*R_NET tp\[14\]\[0\] 3.097e-01
*DRIVER U36:Z
*CELL XOR2_X1
*C2_R1_C1 1.549e-01 6.236e-03 1.549e-01 
*LOADS
*RC data_out\[16\] 1.931e-03
*END

*R_NET tp\[13\]\[4\] 3.097e-01
*DRIVER U40:Z
*CELL XOR2_X1
*C2_R1_C1 1.549e-01 6.236e-03 1.549e-01 
*LOADS
*RC data_out\[20\] 1.931e-03
*END

*R_NET tp\[12\]\[1\] 3.097e-01
*DRIVER U45:Z
*CELL XOR2_X1
*C2_R1_C1 1.549e-01 6.236e-03 1.549e-01 
*LOADS
*RC data_out\[17\] 1.931e-03
*END

*R_NET n28 2.542e+00
*DRIVER U38:Z
*CELL XOR2_X1
*C2_R1_C1 1.271e+00 6.236e-03 1.271e+00 
*LOADS
*RC U36:A 1.585e-02
*END

*R_NET n29 2.721e+00
*DRIVER U37:Z
*CELL XOR2_X1
*C2_R1_C1 1.361e+00 6.236e-03 1.361e+00 
*LOADS
*RC U36:B 1.697e-02
*END

*R_NET n30 5.163e+00
*DRIVER U65:Z
*CELL XOR2_X1
*C2_R1_C1 2.582e+00 1.407e-02 2.582e+00 
*LOADS
*RC U63:A 1.816e-02
*RC U37:A 1.816e-02
*END

*R_NET n31 5.636e+00
*DRIVER U55:Z
*CELL XOR2_X1
*C2_R1_C1 2.818e+00 1.407e-02 2.818e+00 
*LOADS
*RC U54:B 2.056e-02
*RC U37:B 1.942e-02
*END

*R_NET n32 2.721e+00
*DRIVER U39:Z
*CELL XOR2_X1
*C2_R1_C1 1.361e+00 6.236e-03 1.361e+00 
*LOADS
*RC U38:B 1.697e-02
*END

*R_NET n33 2.542e+00
*DRIVER U43:ZN
*CELL XNOR2_X1
*C2_R1_C1 1.271e+00 6.236e-03 1.271e+00 
*LOADS
*RC U40:A 1.585e-02
*END

*R_NET n34 2.721e+00
*DRIVER U41:Z
*CELL XOR2_X1
*C2_R1_C1 1.361e+00 6.236e-03 1.361e+00 
*LOADS
*RC U40:B 1.697e-02
*END

*R_NET n35 2.542e+00
*DRIVER U42:ZN
*CELL XNOR2_X1
*C2_R1_C1 1.271e+00 6.236e-03 1.271e+00 
*LOADS
*RC U41:A 1.585e-02
*END

*R_NET n36 5.636e+00
*DRIVER U48:Z
*CELL XOR2_X1
*C2_R1_C1 2.818e+00 1.407e-02 2.818e+00 
*LOADS
*RC U47:B 2.056e-02
*RC U41:B 1.942e-02
*END

*R_NET n37 5.636e+00
*DRIVER U61:Z
*CELL XOR2_X1
*C2_R1_C1 2.818e+00 1.407e-02 2.818e+00 
*LOADS
*RC U60:B 1.942e-02
*RC U42:B 2.056e-02
*END

*R_NET n38 2.883e+00
*DRIVER U44:Z
*CELL XOR2_X1
*C2_R1_C1 1.442e+00 6.236e-03 1.442e+00 
*LOADS
*RC U43:B 1.798e-02
*END

*R_NET n39 2.542e+00
*DRIVER U49:ZN
*CELL XNOR2_X1
*C2_R1_C1 1.271e+00 6.236e-03 1.271e+00 
*LOADS
*RC U45:A 1.585e-02
*END

*R_NET n40 2.721e+00
*DRIVER U46:Z
*CELL XOR2_X1
*C2_R1_C1 1.361e+00 6.236e-03 1.361e+00 
*LOADS
*RC U45:B 1.697e-02
*END

*R_NET n41 2.542e+00
*DRIVER U47:ZN
*CELL XNOR2_X1
*C2_R1_C1 1.271e+00 6.236e-03 1.271e+00 
*LOADS
*RC U46:A 1.585e-02
*END

*R_NET n42 5.636e+00
*DRIVER U53:Z
*CELL XOR2_X1
*C2_R1_C1 2.818e+00 1.407e-02 2.818e+00 
*LOADS
*RC U52:B 2.056e-02
*RC U46:B 1.942e-02
*END

*R_NET n43 2.883e+00
*DRIVER U50:Z
*CELL XOR2_X1
*C2_R1_C1 1.442e+00 6.236e-03 1.442e+00 
*LOADS
*RC U49:B 1.798e-02
*END

*R_NET n44 2.542e+00
*DRIVER U54:ZN
*CELL XNOR2_X1
*C2_R1_C1 1.271e+00 6.236e-03 1.271e+00 
*LOADS
*RC U51:A 1.585e-02
*END

*R_NET n45 2.721e+00
*DRIVER U52:ZN
*CELL XNOR2_X1
*C2_R1_C1 1.361e+00 6.236e-03 1.361e+00 
*LOADS
*RC U51:B 1.697e-02
*END

*R_NET n46 5.164e+00
*DRIVER U58:Z
*CELL XOR2_X1
*C2_R1_C1 2.582e+00 1.407e-02 2.582e+00 
*LOADS
*RC U57:A 1.816e-02
*RC U52:A 1.816e-02
*END

*R_NET n47 2.542e+00
*DRIVER U60:Z
*CELL XOR2_X1
*C2_R1_C1 1.271e+00 6.236e-03 1.271e+00 
*LOADS
*RC U56:A 1.585e-02
*END

*R_NET n48 2.721e+00
*DRIVER U57:Z
*CELL XOR2_X1
*C2_R1_C1 1.361e+00 6.236e-03 1.361e+00 
*LOADS
*RC U56:B 1.697e-02
*END

*R_NET n49 5.522e+00
*DRIVER U64:Z
*CELL XOR2_X1
*C2_R1_C1 2.761e+00 1.407e-02 2.761e+00 
*LOADS
*RC U63:B 1.942e-02
*RC U57:B 1.942e-02
*END

*R_NET n50 2.721e+00
*DRIVER U59:Z
*CELL XOR2_X1
*C2_R1_C1 1.361e+00 6.236e-03 1.361e+00 
*LOADS
*RC U58:B 1.697e-02
*END

*R_NET n51 2.542e+00
*DRIVER U67:Z
*CELL XOR2_X1
*C2_R1_C1 1.271e+00 6.236e-03 1.271e+00 
*LOADS
*RC U62:A 1.585e-02
*END

*R_NET n52 2.721e+00
*DRIVER U63:Z
*CELL XOR2_X1
*C2_R1_C1 1.361e+00 6.236e-03 1.361e+00 
*LOADS
*RC U62:B 1.697e-02
*END

*R_NET n53 2.721e+00
*DRIVER U66:Z
*CELL XOR2_X1
*C2_R1_C1 1.361e+00 6.236e-03 1.361e+00 
*LOADS
*RC U65:B 1.697e-02
*END

*R_NET n54 2.721e+00
*DRIVER U68:Z
*CELL XOR2_X1
*C2_R1_C1 1.361e+00 6.236e-03 1.361e+00 
*LOADS
*RC U67:B 1.697e-02
*END
