*SPEF "IEEE 1481-1999"
*DESIGN "SECDED_1622_dec"
*DATE "Mon Sep  7 23:34:12 2026"
*VENDOR "SYNOPSYS INC"
*PROGRAM "Synopsys Design Compiler cmos"
*VERSION "X-2025.06-SP5-2"
*DESIGN_FLOW "SYNTHESIS"
*DIVIDER /
*DELIMITER :
*BUS_DELIMITER []
*T_UNIT 1.0 NS
*C_UNIT 0.0010 PF
*R_UNIT 1000.0 KOHM
*L_UNIT 1.0 HENRY

*PORTS

data_in\[21\] I *L 0.000e+00 *S 0.000e+00 0.000e+00 
data_in\[20\] I *L 0.000e+00 *S 0.000e+00 0.000e+00 
data_in\[19\] I *L 0.000e+00 *S 0.000e+00 0.000e+00 
data_in\[18\] I *L 0.000e+00 *S 0.000e+00 0.000e+00 
data_in\[17\] I *L 0.000e+00 *S 0.000e+00 0.000e+00 
data_in\[16\] I *L 0.000e+00 *S 0.000e+00 0.000e+00 
data_in\[15\] I *L 0.000e+00 *S 0.000e+00 0.000e+00 
data_in\[14\] I *L 0.000e+00 *S 0.000e+00 0.000e+00 
data_in\[13\] I *L 0.000e+00 *S 0.000e+00 0.000e+00 
data_in\[12\] I *L 0.000e+00 *S 0.000e+00 0.000e+00 
data_in\[11\] I *L 0.000e+00 *S 0.000e+00 0.000e+00 
data_in\[10\] I *L 0.000e+00 *S 0.000e+00 0.000e+00 
data_in\[9\] I *L 0.000e+00 *S 0.000e+00 0.000e+00 
data_in\[8\] I *L 0.000e+00 *S 0.000e+00 0.000e+00 
data_in\[7\] I *L 0.000e+00 *S 0.000e+00 0.000e+00 
data_in\[6\] I *L 0.000e+00 *S 0.000e+00 0.000e+00 
data_in\[5\] I *L 0.000e+00 *S 0.000e+00 0.000e+00 
data_in\[4\] I *L 0.000e+00 *S 0.000e+00 0.000e+00 
data_in\[3\] I *L 0.000e+00 *S 0.000e+00 0.000e+00 
data_in\[2\] I *L 0.000e+00 *S 0.000e+00 0.000e+00 
data_in\[1\] I *L 0.000e+00 *S 0.000e+00 0.000e+00 
data_in\[0\] I *L 0.000e+00 *S 0.000e+00 0.000e+00 
uncorrected O *L 0.000e+00 *S 2.091e-03 1.389e-03 
data_out\[21\] O *L 0.000e+00 *S 2.096e-03 1.377e-03 
data_out\[20\] O *L 0.000e+00 *S 2.096e-03 1.377e-03 
data_out\[19\] O *L 0.000e+00 *S 2.096e-03 1.377e-03 
data_out\[18\] O *L 0.000e+00 *S 2.096e-03 1.377e-03 
data_out\[17\] O *L 0.000e+00 *S 2.096e-03 1.377e-03 
data_out\[16\] O *L 0.000e+00 *S 2.096e-03 1.377e-03 
data_out\[15\] O *L 0.000e+00 *S 2.094e-03 1.384e-03 
data_out\[14\] O *L 0.000e+00 *S 2.096e-03 1.377e-03 
data_out\[13\] O *L 0.000e+00 *S 2.096e-03 1.377e-03 
data_out\[12\] O *L 0.000e+00 *S 2.094e-03 1.384e-03 
data_out\[11\] O *L 0.000e+00 *S 2.096e-03 1.377e-03 
data_out\[10\] O *L 0.000e+00 *S 2.096e-03 1.377e-03 
data_out\[9\] O *L 0.000e+00 *S 2.096e-03 1.377e-03 
data_out\[8\] O *L 0.000e+00 *S 2.094e-03 1.384e-03 
data_out\[7\] O *L 0.000e+00 *S 2.096e-03 1.377e-03 
data_out\[6\] O *L 0.000e+00 *S 2.096e-03 1.377e-03 
data_out\[5\] O *L 0.000e+00 *S 2.096e-03 1.377e-03 
data_out\[4\] O *L 0.000e+00 *S 2.094e-03 1.384e-03 
data_out\[3\] O *L 0.000e+00 *S 2.096e-03 1.377e-03 
data_out\[2\] O *L 0.000e+00 *S 2.096e-03 1.377e-03 
data_out\[1\] O *L 0.000e+00 *S 2.096e-03 1.377e-03 
data_out\[0\] O *L 0.000e+00 *S 2.096e-03 1.377e-03 

*R_NET data_in\[21\] 5.295e+00
*DRIVER data_in\[21\]
*CELL NULL
*C2_R1_C1 2.648e+00 1.407e-02 2.648e+00 
*LOADS
*RC U151:A 1.816e-02
*RC U247:B 1.942e-02
*END

*R_NET data_in\[20\] 5.164e+00
*DRIVER data_in\[20\]
*CELL NULL
*C2_R1_C1 2.582e+00 1.407e-02 2.582e+00 
*LOADS
*RC U153:A 1.816e-02
*RC U225:A 1.816e-02
*END

*R_NET data_in\[19\] 5.164e+00
*DRIVER data_in\[19\]
*CELL NULL
*C2_R1_C1 2.582e+00 1.407e-02 2.582e+00 
*LOADS
*RC U159:A 1.816e-02
*RC U242:A 1.816e-02
*END

*R_NET data_in\[18\] 5.164e+00
*DRIVER data_in\[18\]
*CELL NULL
*C2_R1_C1 2.582e+00 1.407e-02 2.582e+00 
*LOADS
*RC U161:A 1.816e-02
*RC U231:A 1.816e-02
*END

*R_NET data_in\[17\] 5.164e+00
*DRIVER data_in\[17\]
*CELL NULL
*C2_R1_C1 2.582e+00 1.407e-02 2.582e+00 
*LOADS
*RC U164:A 1.816e-02
*RC U212:A 1.816e-02
*END

*R_NET data_in\[16\] 5.295e+00
*DRIVER data_in\[16\]
*CELL NULL
*C2_R1_C1 2.648e+00 1.407e-02 2.648e+00 
*LOADS
*RC U166:A 1.816e-02
*RC U205:B 1.942e-02
*END

*R_NET data_in\[15\] 4.631e+00
*DRIVER data_in\[15\]
*CELL NULL
*C2_R1_C1 2.316e+00 1.407e-02 2.316e+00 
*LOADS
*RC U239:A 1.816e-02
*RC U251:A 1.442e-02
*END

*R_NET data_in\[14\] 1.083e+01
*DRIVER data_in\[14\]
*CELL NULL
*C2_R1_C1 5.414e+00 3.293e-02 5.414e+00 
*LOADS
*RC U172:A 2.175e-02
*RC U201:A 2.175e-02
*RC U231:B 2.322e-02
*RC U239:B 2.322e-02
*END

*R_NET data_in\[13\] 1.070e+01
*DRIVER data_in\[13\]
*CELL NULL
*C2_R1_C1 5.348e+00 3.293e-02 5.348e+00 
*LOADS
*RC U174:A 2.175e-02
*RC U222:B 2.322e-02
*RC U230:A 2.174e-02
*RC U237:A 2.174e-02
*END

*R_NET data_in\[12\] 7.311e+00
*DRIVER data_in\[12\]
*CELL NULL
*C2_R1_C1 3.655e+00 2.308e-02 3.655e+00 
*LOADS
*RC U217:A 1.602e-02
*RC U221:A 2.011e-02
*RC U246:A 2.011e-02
*END

*R_NET data_in\[11\] 8.106e+00
*DRIVER data_in\[11\]
*CELL NULL
*C2_R1_C1 4.053e+00 2.308e-02 4.053e+00 
*LOADS
*RC U184:A 2.012e-02
*RC U238:B 2.149e-02
*RC U246:B 2.149e-02
*END

*R_NET data_in\[10\] 7.844e+00
*DRIVER data_in\[10\]
*CELL NULL
*C2_R1_C1 3.922e+00 2.308e-02 3.922e+00 
*LOADS
*RC U189:A 2.012e-02
*RC U204:A 2.011e-02
*RC U238:A 2.011e-02
*END

*R_NET data_in\[9\] 1.056e+01
*DRIVER data_in\[9\]
*CELL NULL
*C2_R1_C1 5.282e+00 3.293e-02 5.282e+00 
*LOADS
*RC U134:A 2.175e-02
*RC U216:A 2.174e-02
*RC U224:A 2.174e-02
*RC U241:A 2.174e-02
*END

*R_NET data_in\[8\] 1.070e+01
*DRIVER data_in\[8\]
*CELL NULL
*C2_R1_C1 5.348e+00 3.293e-02 5.348e+00 
*LOADS
*RC U136:A 2.174e-02
*RC U216:B 2.322e-02
*RC U234:A 2.174e-02
*RC U250:A 2.174e-02
*END

*R_NET data_in\[7\] 1.083e+01
*DRIVER data_in\[7\]
*CELL NULL
*C2_R1_C1 5.414e+00 3.293e-02 5.414e+00 
*LOADS
*RC U138:A 2.175e-02
*RC U215:A 2.174e-02
*RC U224:B 2.322e-02
*RC U234:B 2.322e-02
*END

*R_NET data_in\[6\] 1.083e+01
*DRIVER data_in\[6\]
*CELL NULL
*C2_R1_C1 5.414e+00 3.293e-02 5.414e+00 
*LOADS
*RC U140:A 2.175e-02
*RC U215:B 2.322e-02
*RC U233:A 2.174e-02
*RC U241:B 2.322e-02
*END

*R_NET data_in\[5\] 1.104e+01
*DRIVER data_in\[5\]
*CELL NULL
*C2_R1_C1 5.519e+00 3.293e-02 5.519e+00 
*LOADS
*RC U142:A 2.175e-02
*RC U208:A 2.174e-02
*RC U242:B 2.455e-02
*RC U250:B 2.322e-02
*END

*R_NET data_in\[4\] 1.083e+01
*DRIVER data_in\[4\]
*CELL NULL
*C2_R1_C1 5.414e+00 3.293e-02 5.414e+00 
*LOADS
*RC U144:A 2.174e-02
*RC U208:B 2.322e-02
*RC U233:B 2.322e-02
*RC U249:A 2.174e-02
*END

*R_NET data_in\[3\] 1.104e+01
*DRIVER data_in\[3\]
*CELL NULL
*C2_R1_C1 5.519e+00 3.293e-02 5.519e+00 
*LOADS
*RC U147:A 2.175e-02
*RC U207:A 2.174e-02
*RC U225:B 2.455e-02
*RC U249:B 2.322e-02
*END

*R_NET data_in\[2\] 1.070e+01
*DRIVER data_in\[2\]
*CELL NULL
*C2_R1_C1 5.348e+00 3.293e-02 5.348e+00 
*LOADS
*RC U149:A 2.175e-02
*RC U207:B 2.322e-02
*RC U213:A 2.174e-02
*RC U247:A 2.174e-02
*END

*R_NET data_in\[1\] 1.070e+01
*DRIVER data_in\[1\]
*CELL NULL
*C2_R1_C1 5.348e+00 3.293e-02 5.348e+00 
*LOADS
*RC U156:A 2.175e-02
*RC U205:A 2.174e-02
*RC U213:B 2.322e-02
*RC U222:A 2.174e-02
*END

*R_NET data_in\[0\] 1.100e+01
*DRIVER data_in\[0\]
*CELL NULL
*C2_R1_C1 5.498e+00 3.293e-02 5.498e+00 
*LOADS
*RC U198:A 2.175e-02
*RC U204:B 2.322e-02
*RC U212:B 2.322e-02
*RC U230:B 2.322e-02
*END

*R_NET uncorrected 3.097e-01
*DRIVER U127:ZN
*CELL AOI21_X1
*C2_R1_C1 1.549e-01 6.236e-03 1.549e-01 
*LOADS
*RC uncorrected 1.931e-03
*END

*R_NET data_out\[21\] 3.097e-01
*DRIVER U151:ZN
*CELL XNOR2_X1
*C2_R1_C1 1.549e-01 6.236e-03 1.549e-01 
*LOADS
*RC data_out\[21\] 1.931e-03
*END

*R_NET data_out\[20\] 3.097e-01
*DRIVER U153:ZN
*CELL XNOR2_X1
*C2_R1_C1 1.549e-01 6.236e-03 1.549e-01 
*LOADS
*RC data_out\[20\] 1.931e-03
*END

*R_NET data_out\[19\] 3.097e-01
*DRIVER U159:ZN
*CELL XNOR2_X1
*C2_R1_C1 1.549e-01 6.236e-03 1.549e-01 
*LOADS
*RC data_out\[19\] 1.931e-03
*END

*R_NET data_out\[18\] 3.097e-01
*DRIVER U161:ZN
*CELL XNOR2_X1
*C2_R1_C1 1.549e-01 6.236e-03 1.549e-01 
*LOADS
*RC data_out\[18\] 1.931e-03
*END

*R_NET data_out\[17\] 3.097e-01
*DRIVER U164:ZN
*CELL XNOR2_X1
*C2_R1_C1 1.549e-01 6.236e-03 1.549e-01 
*LOADS
*RC data_out\[17\] 1.931e-03
*END

*R_NET data_out\[16\] 3.097e-01
*DRIVER U166:ZN
*CELL XNOR2_X1
*C2_R1_C1 1.549e-01 6.236e-03 1.549e-01 
*LOADS
*RC data_out\[16\] 1.931e-03
*END

*R_NET data_out\[15\] 3.097e-01
*DRIVER U169:Z
*CELL XOR2_X1
*C2_R1_C1 1.549e-01 6.236e-03 1.549e-01 
*LOADS
*RC data_out\[15\] 1.931e-03
*END

*R_NET data_out\[14\] 3.097e-01
*DRIVER U172:ZN
*CELL XNOR2_X1
*C2_R1_C1 1.549e-01 6.236e-03 1.549e-01 
*LOADS
*RC data_out\[14\] 1.931e-03
*END

*R_NET data_out\[13\] 3.097e-01
*DRIVER U174:ZN
*CELL XNOR2_X1
*C2_R1_C1 1.549e-01 6.236e-03 1.549e-01 
*LOADS
*RC data_out\[13\] 1.931e-03
*END

*R_NET data_out\[12\] 3.097e-01
*DRIVER U177:Z
*CELL XOR2_X1
*C2_R1_C1 1.549e-01 6.236e-03 1.549e-01 
*LOADS
*RC data_out\[12\] 1.931e-03
*END

*R_NET data_out\[11\] 3.097e-01
*DRIVER U184:ZN
*CELL XNOR2_X1
*C2_R1_C1 1.549e-01 6.236e-03 1.549e-01 
*LOADS
*RC data_out\[11\] 1.931e-03
*END

*R_NET data_out\[10\] 3.097e-01
*DRIVER U189:ZN
*CELL XNOR2_X1
*C2_R1_C1 1.549e-01 6.236e-03 1.549e-01 
*LOADS
*RC data_out\[10\] 1.931e-03
*END

*R_NET data_out\[9\] 3.097e-01
*DRIVER U134:ZN
*CELL XNOR2_X1
*C2_R1_C1 1.549e-01 6.236e-03 1.549e-01 
*LOADS
*RC data_out\[9\] 1.931e-03
*END

*R_NET data_out\[8\] 3.097e-01
*DRIVER U136:Z
*CELL XOR2_X1
*C2_R1_C1 1.549e-01 6.236e-03 1.549e-01 
*LOADS
*RC data_out\[8\] 1.931e-03
*END

*R_NET data_out\[7\] 3.097e-01
*DRIVER U138:ZN
*CELL XNOR2_X1
*C2_R1_C1 1.549e-01 6.236e-03 1.549e-01 
*LOADS
*RC data_out\[7\] 1.931e-03
*END

*R_NET data_out\[6\] 3.097e-01
*DRIVER U140:ZN
*CELL XNOR2_X1
*C2_R1_C1 1.549e-01 6.236e-03 1.549e-01 
*LOADS
*RC data_out\[6\] 1.931e-03
*END

*R_NET data_out\[5\] 3.097e-01
*DRIVER U142:ZN
*CELL XNOR2_X1
*C2_R1_C1 1.549e-01 6.236e-03 1.549e-01 
*LOADS
*RC data_out\[5\] 1.931e-03
*END

*R_NET data_out\[4\] 3.097e-01
*DRIVER U144:Z
*CELL XOR2_X1
*C2_R1_C1 1.549e-01 6.236e-03 1.549e-01 
*LOADS
*RC data_out\[4\] 1.931e-03
*END

*R_NET data_out\[3\] 3.097e-01
*DRIVER U147:ZN
*CELL XNOR2_X1
*C2_R1_C1 1.549e-01 6.236e-03 1.549e-01 
*LOADS
*RC data_out\[3\] 1.931e-03
*END

*R_NET data_out\[2\] 3.097e-01
*DRIVER U149:ZN
*CELL XNOR2_X1
*C2_R1_C1 1.549e-01 6.236e-03 1.549e-01 
*LOADS
*RC data_out\[2\] 1.931e-03
*END

*R_NET data_out\[1\] 3.097e-01
*DRIVER U156:ZN
*CELL XNOR2_X1
*C2_R1_C1 1.549e-01 6.236e-03 1.549e-01 
*LOADS
*RC data_out\[1\] 1.931e-03
*END

*R_NET data_out\[0\] 3.097e-01
*DRIVER U198:ZN
*CELL XNOR2_X1
*C2_R1_C1 1.549e-01 6.236e-03 1.549e-01 
*LOADS
*RC data_out\[0\] 1.931e-03
*END

*R_NET n102 1.334e+01
*DRIVER U187:ZN
*CELL NOR2_X1
*C2_R1_C1 6.669e+00 6.648e-02 6.669e+00 
*LOADS
*RC U185:A2 1.963e-02
*RC U175:A2 1.988e-02
*RC U170:A2 1.988e-02
*RC U163:A1 1.320e-02
*RC U155:A1 1.320e-02
*RC U133:A1 2.076e-02
*RC U127:B1 2.012e-02
*END

*R_NET n103 6.152e+00
*DRIVER U168:ZN
*CELL AND3_X1
*C2_R1_C1 3.076e+00 2.308e-02 3.076e+00 
*LOADS
*RC U167:A2 1.574e-02
*RC U165:A2 1.574e-02
*RC U127:B2 1.584e-02
*END

*R_NET n104 1.936e+00
*DRIVER U128:Z
*CELL XOR2_X1
*C2_R1_C1 9.680e-01 6.236e-03 9.680e-01 
*LOADS
*RC U127:A 1.207e-02
*END

*R_NET n105 2.542e+00
*DRIVER U130:Z
*CELL MUX2_X1
*C2_R1_C1 1.271e+00 6.236e-03 1.271e+00 
*LOADS
*RC U128:A 1.585e-02
*END

*R_NET n106 2.721e+00
*DRIVER U129:ZN
*CELL NOR2_X1
*C2_R1_C1 1.361e+00 6.236e-03 1.361e+00 
*LOADS
*RC U128:B 1.697e-02
*END

*R_NET n107 5.429e+00
*DRIVER U226:ZN
*CELL NOR2_X1
*C2_R1_C1 2.715e+00 2.308e-02 2.715e+00 
*LOADS
*RC U218:A1 1.000e-02
*RC U139:A3 1.564e-02
*RC U129:A1 1.613e-02
*END

*R_NET n108 9.447e+00
*DRIVER U194:ZN
*CELL AND2_X1
*C2_R1_C1 4.723e+00 4.254e-02 4.723e+00 
*LOADS
*RC U191:A1 1.141e-02
*RC U185:A1 1.655e-02
*RC U160:A2 1.739e-02
*RC U143:A2 1.739e-02
*RC U129:A2 1.765e-02
*END

*R_NET n109 1.256e+00
*DRIVER U133:ZN
*CELL NOR2_X1
*C2_R1_C1 6.281e-01 6.236e-03 6.281e-01 
*LOADS
*RC U130:A 7.833e-03
*END

*R_NET n110 1.255e+00
*DRIVER U132:ZN
*CELL NOR2_X1
*C2_R1_C1 6.273e-01 6.236e-03 6.273e-01 
*LOADS
*RC U130:B 7.823e-03
*END

*R_NET n111 2.230e+00
*DRIVER U131:ZN
*CELL NOR2_X1
*C2_R1_C1 1.115e+00 6.236e-03 1.115e+00 
*LOADS
*RC U130:S 1.390e-02
*END

*R_NET n112 1.040e+01
*DRIVER U171:ZN
*CELL NOR2_X1
*C2_R1_C1 5.198e+00 4.254e-02 5.198e+00 
*LOADS
*RC U170:A3 1.764e-02
*RC U152:A2 1.776e-02
*RC U150:A2 1.776e-02
*RC U143:A1 1.713e-02
*RC U131:A1 1.818e-02
*END

*R_NET n113 1.180e+01
*DRIVER U192:ZN
*CELL NOR2_X1
*C2_R1_C1 5.899e+00 5.299e-02 5.899e+00 
*LOADS
*RC U191:A2 1.248e-02
*RC U175:A1 1.792e-02
*RC U157:A2 1.857e-02
*RC U154:A2 1.857e-02
*RC U139:A2 1.819e-02
*RC U131:A2 1.846e-02
*END

*R_NET n114 1.239e+01
*DRIVER U179:ZN
*CELL INV_X1
*C2_R1_C1 6.197e+00 5.299e-02 6.197e+00 
*LOADS
*RC U178:A2 1.857e-02
*RC U165:A1 1.799e-02
*RC U141:A2 1.796e-02
*RC U139:A1 1.792e-02
*RC U135:A1 1.799e-02
*RC U132:A1 1.901e-02
*END

*R_NET n115 1.232e+01
*DRIVER U195:ZN
*CELL INV_X1
*C2_R1_C1 6.159e+00 5.299e-02 6.159e+00 
*LOADS
*RC U190:A1 1.799e-02
*RC U173:A1 1.731e-02
*RC U167:A1 1.799e-02
*RC U148:A2 1.857e-02
*RC U143:A3 1.845e-02
*RC U132:A2 1.846e-02
*END

*R_NET n116 5.366e+00
*DRIVER U200:ZN
*CELL NOR2_X1
*C2_R1_C1 2.683e+00 2.308e-02 2.683e+00 
*LOADS
*RC U199:A3 1.564e-02
*RC U158:A1 1.000e-02
*RC U133:A2 1.564e-02
*END

*R_NET n117 2.883e+00
*DRIVER U135:ZN
*CELL NAND2_X1
*C2_R1_C1 1.442e+00 6.236e-03 1.442e+00 
*LOADS
*RC U134:B 1.798e-02
*END

*R_NET n118 4.027e+00
*DRIVER U191:ZN
*CELL AND2_X1
*C2_R1_C1 2.014e+00 1.407e-02 2.014e+00 
*LOADS
*RC U190:A2 1.417e-02
*RC U135:A2 1.417e-02
*END

*R_NET n119 2.721e+00
*DRIVER U137:ZN
*CELL NOR2_X1
*C2_R1_C1 1.361e+00 6.236e-03 1.361e+00 
*LOADS
*RC U136:B 1.697e-02
*END

*R_NET n120 4.114e+00
*DRIVER U180:ZN
*CELL NAND2_X1
*C2_R1_C1 2.057e+00 1.407e-02 2.057e+00 
*LOADS
*RC U179:A 1.442e-02
*RC U137:A1 1.452e-02
*END

*R_NET n121 4.065e+00
*DRIVER U146:ZN
*CELL NAND2_X1
*C2_R1_C1 2.032e+00 1.407e-02 2.032e+00 
*LOADS
*RC U145:A1 1.452e-02
*RC U137:A2 1.407e-02
*END

*R_NET n122 2.883e+00
*DRIVER U139:ZN
*CELL NAND3_X1
*C2_R1_C1 1.442e+00 6.236e-03 1.442e+00 
*LOADS
*RC U138:B 1.798e-02
*END

*R_NET n123 2.883e+00
*DRIVER U141:ZN
*CELL NAND4_X1
*C2_R1_C1 1.442e+00 6.236e-03 1.442e+00 
*LOADS
*RC U140:B 1.798e-02
*END

*R_NET n124 7.993e+00
*DRIVER U176:ZN
*CELL AND2_X1
*C2_R1_C1 3.996e+00 3.293e-02 3.996e+00 
*LOADS
*RC U175:A3 1.695e-02
*RC U173:A2 1.650e-02
*RC U170:A1 1.646e-02
*RC U141:A1 1.590e-02
*END

*R_NET n125 1.337e+01
*DRIVER U243:Z
*CELL XOR2_X1
*C2_R1_C1 6.687e+00 6.648e-02 6.687e+00 
*LOADS
*RC U199:A1 1.958e-02
*RC U193:A 2.063e-02
*RC U173:A3 2.004e-02
*RC U171:A2 2.016e-02
*RC U168:A1 1.284e-02
*RC U163:A2 1.374e-02
*RC U141:A3 2.004e-02
*END

*R_NET n126 1.347e+01
*DRIVER U219:Z
*CELL XOR2_X1
*C2_R1_C1 6.733e+00 6.648e-02 6.733e+00 
*LOADS
*RC U218:A2 1.374e-02
*RC U192:A2 2.016e-02
*RC U186:A 2.063e-02
*RC U173:A4 2.025e-02
*RC U168:A2 1.329e-02
*RC U160:A1 1.958e-02
*RC U141:A4 2.025e-02
*END

*R_NET n127 2.883e+00
*DRIVER U143:ZN
*CELL NAND3_X1
*C2_R1_C1 1.442e+00 6.236e-03 1.442e+00 
*LOADS
*RC U142:B 1.798e-02
*END

*R_NET n128 2.721e+00
*DRIVER U145:ZN
*CELL NOR2_X1
*C2_R1_C1 1.361e+00 6.236e-03 1.361e+00 
*LOADS
*RC U144:B 1.697e-02
*END

*R_NET n129 4.050e+00
*DRIVER U196:ZN
*CELL NAND2_X1
*C2_R1_C1 2.025e+00 1.407e-02 2.025e+00 
*LOADS
*RC U195:A 1.442e-02
*RC U145:A2 1.407e-02
*END

*R_NET n130 6.031e+00
*DRIVER U218:ZN
*CELL AND2_X1
*C2_R1_C1 3.015e+00 2.308e-02 3.015e+00 
*LOADS
*RC U199:A2 1.541e-02
*RC U162:A2 1.574e-02
*RC U146:A1 1.524e-02
*END

*R_NET n131 7.602e+00
*DRIVER U193:ZN
*CELL INV_X1
*C2_R1_C1 3.801e+00 3.293e-02 3.801e+00 
*LOADS
*RC U192:A1 1.748e-02
*RC U185:A4 1.703e-02
*RC U181:A2 1.100e-02
*RC U146:A2 1.707e-02
*END

*R_NET n132 2.883e+00
*DRIVER U148:ZN
*CELL NAND2_X1
*C2_R1_C1 1.442e+00 6.236e-03 1.442e+00 
*LOADS
*RC U147:B 1.798e-02
*END

*R_NET n133 3.897e+00
*DRIVER U181:ZN
*CELL AND3_X1
*C2_R1_C1 1.948e+00 1.407e-02 1.948e+00 
*LOADS
*RC U178:A1 1.371e-02
*RC U148:A1 1.371e-02
*END

*R_NET n134 2.883e+00
*DRIVER U150:ZN
*CELL NAND2_X1
*C2_R1_C1 1.442e+00 6.236e-03 1.442e+00 
*LOADS
*RC U149:B 1.798e-02
*END

*R_NET n135 3.897e+00
*DRIVER U158:ZN
*CELL AND2_X1
*C2_R1_C1 1.948e+00 1.407e-02 1.948e+00 
*LOADS
*RC U157:A1 1.371e-02
*RC U150:A1 1.371e-02
*END

*R_NET n136 2.883e+00
*DRIVER U152:ZN
*CELL NAND2_X1
*C2_R1_C1 1.442e+00 6.236e-03 1.442e+00 
*LOADS
*RC U151:B 1.798e-02
*END

*R_NET n137 3.897e+00
*DRIVER U155:ZN
*CELL AND2_X1
*C2_R1_C1 1.948e+00 1.407e-02 1.948e+00 
*LOADS
*RC U154:A1 1.371e-02
*RC U152:A1 1.371e-02
*END

*R_NET n138 2.883e+00
*DRIVER U154:ZN
*CELL NAND2_X1
*C2_R1_C1 1.442e+00 6.236e-03 1.442e+00 
*LOADS
*RC U153:B 1.798e-02
*END

*R_NET n139 5.515e+00
*DRIVER U182:ZN
*CELL NOR2_X1
*C2_R1_C1 2.757e+00 3.293e-02 2.757e+00 
*LOADS
*RC U181:A3 1.131e-02
*RC U168:A3 1.131e-02
*RC U158:A2 1.139e-02
*RC U155:A2 1.139e-02
*END

*R_NET n140 2.883e+00
*DRIVER U157:ZN
*CELL NAND2_X1
*C2_R1_C1 1.442e+00 6.236e-03 1.442e+00 
*LOADS
*RC U156:B 1.798e-02
*END

*R_NET n141 2.883e+00
*DRIVER U160:ZN
*CELL NAND3_X1
*C2_R1_C1 1.442e+00 6.236e-03 1.442e+00 
*LOADS
*RC U159:B 1.798e-02
*END

*R_NET n142 3.948e+00
*DRIVER U163:ZN
*CELL AND2_X1
*C2_R1_C1 1.974e+00 1.407e-02 1.974e+00 
*LOADS
*RC U162:A1 1.371e-02
*RC U160:A3 1.407e-02
*END

*R_NET n143 2.883e+00
*DRIVER U162:ZN
*CELL NAND2_X1
*C2_R1_C1 1.442e+00 6.236e-03 1.442e+00 
*LOADS
*RC U161:B 1.798e-02
*END

*R_NET n144 2.883e+00
*DRIVER U165:ZN
*CELL NAND2_X1
*C2_R1_C1 1.442e+00 6.236e-03 1.442e+00 
*LOADS
*RC U164:B 1.798e-02
*END

*R_NET n145 2.883e+00
*DRIVER U167:ZN
*CELL NAND2_X1
*C2_R1_C1 1.442e+00 6.236e-03 1.442e+00 
*LOADS
*RC U166:B 1.798e-02
*END

*R_NET n146 7.843e+00
*DRIVER U251:ZN
*CELL INV_X1
*C2_R1_C1 3.921e+00 2.308e-02 3.921e+00 
*LOADS
*RC U243:A 2.011e-02
*RC U227:A 2.011e-02
*RC U169:A 2.011e-02
*END

*R_NET n147 2.721e+00
*DRIVER U170:ZN
*CELL NAND3_X1
*C2_R1_C1 1.361e+00 6.236e-03 1.361e+00 
*LOADS
*RC U169:B 1.697e-02
*END

*R_NET n148 5.379e+00
*DRIVER U186:ZN
*CELL INV_X1
*C2_R1_C1 2.689e+00 2.308e-02 2.689e+00 
*LOADS
*RC U185:A3 1.554e-02
*RC U181:A1 9.709e-03
*RC U171:A1 1.613e-02
*END

*R_NET n149 2.883e+00
*DRIVER U173:ZN
*CELL NAND4_X1
*C2_R1_C1 1.442e+00 6.236e-03 1.442e+00 
*LOADS
*RC U172:B 1.798e-02
*END

*R_NET n150 2.883e+00
*DRIVER U175:ZN
*CELL NAND3_X1
*C2_R1_C1 1.442e+00 6.236e-03 1.442e+00 
*LOADS
*RC U174:B 1.798e-02
*END

*R_NET n151 6.894e+00
*DRIVER U235:ZN
*CELL XNOR2_X1
*C2_R1_C1 3.447e+00 3.293e-02 3.447e+00 
*LOADS
*RC U226:A1 1.748e-02
*RC U194:A2 1.139e-02
*RC U182:A2 1.696e-02
*RC U176:A1 1.092e-02
*END

*R_NET n152 3.388e+00
*DRIVER U183:ZN
*CELL INV_X1
*C2_R1_C1 1.694e+00 1.407e-02 1.694e+00 
*LOADS
*RC U182:A1 1.452e-02
*RC U176:A2 9.314e-03
*END

*R_NET n153 5.163e+00
*DRIVER U217:ZN
*CELL INV_X1
*C2_R1_C1 2.582e+00 1.407e-02 2.582e+00 
*LOADS
*RC U209:A 1.816e-02
*RC U177:A 1.816e-02
*END

*R_NET n154 2.721e+00
*DRIVER U178:ZN
*CELL NAND2_X1
*C2_R1_C1 1.361e+00 6.236e-03 1.361e+00 
*LOADS
*RC U177:B 1.697e-02
*END

*R_NET n155 6.097e+00
*DRIVER U201:ZN
*CELL XNOR2_X1
*C2_R1_C1 3.049e+00 2.308e-02 3.049e+00 
*LOADS
*RC U200:A2 1.564e-02
*RC U197:A 1.602e-02
*RC U180:A1 1.524e-02
*END

*R_NET n156 4.014e+00
*DRIVER U188:ZN
*CELL INV_X1
*C2_R1_C1 2.007e+00 1.407e-02 2.007e+00 
*LOADS
*RC U187:A2 1.407e-02
*RC U180:A2 1.417e-02
*END

*R_NET n157 5.416e+00
*DRIVER U227:Z
*CELL XOR2_X1
*C2_R1_C1 2.708e+00 2.308e-02 2.708e+00 
*LOADS
*RC U226:A2 1.564e-02
*RC U194:A1 1.000e-02
*RC U183:A 1.602e-02
*END

*R_NET n158 2.883e+00
*DRIVER U185:ZN
*CELL NAND4_X1
*C2_R1_C1 1.442e+00 6.236e-03 1.442e+00 
*LOADS
*RC U184:B 1.798e-02
*END

*R_NET n159 4.078e+00
*DRIVER U197:ZN
*CELL INV_X1
*C2_R1_C1 2.039e+00 1.407e-02 2.039e+00 
*LOADS
*RC U196:A2 1.417e-02
*RC U187:A1 1.452e-02
*END

*R_NET n160 6.160e+00
*DRIVER U209:Z
*CELL XOR2_X1
*C2_R1_C1 3.080e+00 2.308e-02 3.080e+00 
*LOADS
*RC U200:A1 1.613e-02
*RC U196:A1 1.524e-02
*RC U188:A 1.602e-02
*END

*R_NET n161 2.883e+00
*DRIVER U190:ZN
*CELL NAND2_X1
*C2_R1_C1 1.442e+00 6.236e-03 1.442e+00 
*LOADS
*RC U189:B 1.798e-02
*END

*R_NET n162 2.883e+00
*DRIVER U199:ZN
*CELL NAND3_X1
*C2_R1_C1 1.442e+00 6.236e-03 1.442e+00 
*LOADS
*RC U198:B 1.798e-02
*END

*R_NET n163 2.883e+00
*DRIVER U202:Z
*CELL XOR2_X1
*C2_R1_C1 1.442e+00 6.236e-03 1.442e+00 
*LOADS
*RC U201:B 1.798e-02
*END

*R_NET n164 2.542e+00
*DRIVER U206:Z
*CELL XOR2_X1
*C2_R1_C1 1.271e+00 6.236e-03 1.271e+00 
*LOADS
*RC U202:A 1.585e-02
*END

*R_NET n165 2.721e+00
*DRIVER U203:Z
*CELL XOR2_X1
*C2_R1_C1 1.361e+00 6.236e-03 1.361e+00 
*LOADS
*RC U202:B 1.697e-02
*END

*R_NET n166 2.542e+00
*DRIVER U205:Z
*CELL XOR2_X1
*C2_R1_C1 1.271e+00 6.236e-03 1.271e+00 
*LOADS
*RC U203:A 1.585e-02
*END

*R_NET n167 2.721e+00
*DRIVER U204:Z
*CELL XOR2_X1
*C2_R1_C1 1.361e+00 6.236e-03 1.361e+00 
*LOADS
*RC U203:B 1.697e-02
*END

*R_NET n168 2.542e+00
*DRIVER U208:Z
*CELL XOR2_X1
*C2_R1_C1 1.271e+00 6.236e-03 1.271e+00 
*LOADS
*RC U206:A 1.585e-02
*END

*R_NET n169 2.721e+00
*DRIVER U207:Z
*CELL XOR2_X1
*C2_R1_C1 1.361e+00 6.236e-03 1.361e+00 
*LOADS
*RC U206:B 1.697e-02
*END

*R_NET n170 2.721e+00
*DRIVER U210:Z
*CELL XOR2_X1
*C2_R1_C1 1.361e+00 6.236e-03 1.361e+00 
*LOADS
*RC U209:B 1.697e-02
*END

*R_NET n171 2.542e+00
*DRIVER U214:Z
*CELL XOR2_X1
*C2_R1_C1 1.271e+00 6.236e-03 1.271e+00 
*LOADS
*RC U210:A 1.585e-02
*END

*R_NET n172 2.721e+00
*DRIVER U211:Z
*CELL XOR2_X1
*C2_R1_C1 1.361e+00 6.236e-03 1.361e+00 
*LOADS
*RC U210:B 1.697e-02
*END

*R_NET n173 2.542e+00
*DRIVER U213:Z
*CELL XOR2_X1
*C2_R1_C1 1.271e+00 6.236e-03 1.271e+00 
*LOADS
*RC U211:A 1.585e-02
*END

*R_NET n174 2.721e+00
*DRIVER U212:Z
*CELL XOR2_X1
*C2_R1_C1 1.361e+00 6.236e-03 1.361e+00 
*LOADS
*RC U211:B 1.697e-02
*END

*R_NET n175 2.542e+00
*DRIVER U216:Z
*CELL XOR2_X1
*C2_R1_C1 1.271e+00 6.236e-03 1.271e+00 
*LOADS
*RC U214:A 1.585e-02
*END

*R_NET n176 2.721e+00
*DRIVER U215:Z
*CELL XOR2_X1
*C2_R1_C1 1.361e+00 6.236e-03 1.361e+00 
*LOADS
*RC U214:B 1.697e-02
*END

*R_NET n177 2.542e+00
*DRIVER U223:Z
*CELL XOR2_X1
*C2_R1_C1 1.271e+00 6.236e-03 1.271e+00 
*LOADS
*RC U219:A 1.585e-02
*END

*R_NET n178 2.721e+00
*DRIVER U220:Z
*CELL XOR2_X1
*C2_R1_C1 1.361e+00 6.236e-03 1.361e+00 
*LOADS
*RC U219:B 1.697e-02
*END

*R_NET n179 2.542e+00
*DRIVER U222:Z
*CELL XOR2_X1
*C2_R1_C1 1.271e+00 6.236e-03 1.271e+00 
*LOADS
*RC U220:A 1.585e-02
*END

*R_NET n180 2.721e+00
*DRIVER U221:Z
*CELL XOR2_X1
*C2_R1_C1 1.361e+00 6.236e-03 1.361e+00 
*LOADS
*RC U220:B 1.697e-02
*END

*R_NET n181 5.522e+00
*DRIVER U238:Z
*CELL XOR2_X1
*C2_R1_C1 2.761e+00 1.407e-02 2.761e+00 
*LOADS
*RC U237:B 1.942e-02
*RC U221:B 1.942e-02
*END

*R_NET n182 2.542e+00
*DRIVER U225:ZN
*CELL XNOR2_X1
*C2_R1_C1 1.271e+00 6.236e-03 1.271e+00 
*LOADS
*RC U223:A 1.585e-02
*END

*R_NET n183 2.721e+00
*DRIVER U224:Z
*CELL XOR2_X1
*C2_R1_C1 1.361e+00 6.236e-03 1.361e+00 
*LOADS
*RC U223:B 1.697e-02
*END

*R_NET n184 2.721e+00
*DRIVER U228:Z
*CELL XOR2_X1
*C2_R1_C1 1.361e+00 6.236e-03 1.361e+00 
*LOADS
*RC U227:B 1.697e-02
*END

*R_NET n185 2.542e+00
*DRIVER U232:Z
*CELL XOR2_X1
*C2_R1_C1 1.271e+00 6.236e-03 1.271e+00 
*LOADS
*RC U228:A 1.585e-02
*END

*R_NET n186 2.721e+00
*DRIVER U229:Z
*CELL XOR2_X1
*C2_R1_C1 1.361e+00 6.236e-03 1.361e+00 
*LOADS
*RC U228:B 1.697e-02
*END

*R_NET n187 2.542e+00
*DRIVER U231:Z
*CELL XOR2_X1
*C2_R1_C1 1.271e+00 6.236e-03 1.271e+00 
*LOADS
*RC U229:A 1.585e-02
*END

*R_NET n188 2.721e+00
*DRIVER U230:Z
*CELL XOR2_X1
*C2_R1_C1 1.361e+00 6.236e-03 1.361e+00 
*LOADS
*RC U229:B 1.697e-02
*END

*R_NET n189 2.542e+00
*DRIVER U234:Z
*CELL XOR2_X1
*C2_R1_C1 1.271e+00 6.236e-03 1.271e+00 
*LOADS
*RC U232:A 1.585e-02
*END

*R_NET n190 2.721e+00
*DRIVER U233:Z
*CELL XOR2_X1
*C2_R1_C1 1.361e+00 6.236e-03 1.361e+00 
*LOADS
*RC U232:B 1.697e-02
*END

*R_NET n191 2.542e+00
*DRIVER U240:Z
*CELL XOR2_X1
*C2_R1_C1 1.271e+00 6.236e-03 1.271e+00 
*LOADS
*RC U235:A 1.585e-02
*END

*R_NET n192 2.883e+00
*DRIVER U236:Z
*CELL XOR2_X1
*C2_R1_C1 1.442e+00 6.236e-03 1.442e+00 
*LOADS
*RC U235:B 1.798e-02
*END

*R_NET n193 2.542e+00
*DRIVER U239:Z
*CELL XOR2_X1
*C2_R1_C1 1.271e+00 6.236e-03 1.271e+00 
*LOADS
*RC U236:A 1.585e-02
*END

*R_NET n194 2.721e+00
*DRIVER U237:Z
*CELL XOR2_X1
*C2_R1_C1 1.361e+00 6.236e-03 1.361e+00 
*LOADS
*RC U236:B 1.697e-02
*END

*R_NET n195 2.542e+00
*DRIVER U242:ZN
*CELL XNOR2_X1
*C2_R1_C1 1.271e+00 6.236e-03 1.271e+00 
*LOADS
*RC U240:A 1.585e-02
*END

*R_NET n196 2.721e+00
*DRIVER U241:Z
*CELL XOR2_X1
*C2_R1_C1 1.361e+00 6.236e-03 1.361e+00 
*LOADS
*RC U240:B 1.697e-02
*END

*R_NET n197 2.721e+00
*DRIVER U244:Z
*CELL XOR2_X1
*C2_R1_C1 1.361e+00 6.236e-03 1.361e+00 
*LOADS
*RC U243:B 1.697e-02
*END

*R_NET n198 2.542e+00
*DRIVER U248:Z
*CELL XOR2_X1
*C2_R1_C1 1.271e+00 6.236e-03 1.271e+00 
*LOADS
*RC U244:A 1.585e-02
*END

*R_NET n199 2.721e+00
*DRIVER U245:Z
*CELL XOR2_X1
*C2_R1_C1 1.361e+00 6.236e-03 1.361e+00 
*LOADS
*RC U244:B 1.697e-02
*END

*R_NET n200 2.542e+00
*DRIVER U247:Z
*CELL XOR2_X1
*C2_R1_C1 1.271e+00 6.236e-03 1.271e+00 
*LOADS
*RC U245:A 1.585e-02
*END

*R_NET n201 2.721e+00
*DRIVER U246:Z
*CELL XOR2_X1
*C2_R1_C1 1.361e+00 6.236e-03 1.361e+00 
*LOADS
*RC U245:B 1.697e-02
*END

*R_NET n202 2.542e+00
*DRIVER U250:Z
*CELL XOR2_X1
*C2_R1_C1 1.271e+00 6.236e-03 1.271e+00 
*LOADS
*RC U248:A 1.585e-02
*END

*R_NET n203 2.721e+00
*DRIVER U249:Z
*CELL XOR2_X1
*C2_R1_C1 1.361e+00 6.236e-03 1.361e+00 
*LOADS
*RC U248:B 1.697e-02
*END
